benchmarks/bfuzz0/27411246432742137619344320802008828757.smt2
(set-logic QF_FP)
(declare-const x0 (_ FloatingPoint 8 24))
(declare-const x1 (_ FloatingPoint 8 24))
(declare-const x2 (_ FloatingPoint 8 24))
(declare-const x3 (_ FloatingPoint 8 24))
(declare-const x4 (_ FloatingPoint 8 24))
(declare-const x5 (_ FloatingPoint 8 24))
(declare-const x6 (_ FloatingPoint 8 24))
(declare-const x7 (_ FloatingPoint 8 24))
(declare-const x8 (_ FloatingPoint 8 24))
(declare-const x9 (_ FloatingPoint 8 24))
(assert (fp.geq (fp.sub RNE x6 x3) (fp.add RNE x3 x0)))
(assert (fp.eq (fp.div RNE x1 x1) (fp.mul RNE x9 x5)))
(assert (fp.leq (fp.sub RNE x7 x7) (fp.sub RNE x4 x8)))
(assert (fp.leq (fp.div RNE x3 x0) (fp.sub RNE x9 x3)))
(assert (fp.lt (fp.sub RNE x5 x8) (fp.mul RNE x9 x6)))
(assert (fp.eq (fp.sub RNE x1 x4) (fp.mul RNE x3 x2)))
(assert (fp.geq (fp.add RNE x9 x7) (fp.sub RNE x4 x6)))
(check-sat)
