db/data/27411246432742137619344320802008828757.z3.out
sat
-------------------
13.175852387
